n_res = 3;
rcap = [26, 22, 50];
rtype = [1, 1, 2];
n_tasks = 16;
modes = [ {1, 2, 3}, {4, 5, 6}, {7, 8, 9}, {10, 11, 12}, {13, 14, 15}, {16, 17, 18}, {19, 20, 21}, {22, 23, 24}, {25, 26, 27}, {28, 29, 30}, {31, 32, 33}, {34, 35, 36}, {37, 38, 39}, {40, 41, 42}, {43, 44, 45}, {46, 47, 48} ];
succ = [ {4, 5}, {6, 7, 10}, {6, 7, 10}, {10, 11}, {11, 14, 16}, {8, 13}, {12, 13, 16}, {9}, {11, 12, 16}, {14}, {15}, {14, 15}, {15}, {}, {}, {} ];
n_opt = 48;
dur = [4, 5, 7, 1, 5, 6, 5, 7, 8, 2, 3, 5, 1, 5, 6, 4, 7, 8, 2, 4, 6, 1, 6, 10, 6, 9, 10, 3, 7, 10, 1, 3, 6, 1, 2, 9, 1, 7, 8, 4, 9, 10, 4, 10, 10, 4, 5, 7];
rreq = [|  4,  4,  2,  9,  5,  3,  2,  2,  2,  6,  5,  3,  9,  8,  8,  8,  7,  5,  9,  4,  4,  9,  6,  2,  7,  6,  3,  9,  8,  6,  5,  4,  1,  8,  6,  6,  8,  5,  4,  8,  6,  6,  7,  7,  6,  4,  3,  2
        |  4,  3,  3,  7,  6,  2,  7,  6,  5,  4,  4,  3,  6,  6,  4,  9,  5,  5,  7,  7,  7,  8,  7,  7,  3,  2,  2,  6,  6,  5,  9,  8,  7,  7,  5,  4,  7,  5,  2,  2,  2,  1,  7,  4,  5,  5,  3,  3
        |  5,  4,  4,  0,  0,  0,  4,  0,  2,  0,  0,  1,  5,  0,  1,  8,  8,  5,  5,  5,  0,  0,  0,  0,  3,  2,  0,  6,  2,  0,  0,  0,  9,  0,  3,  0,  0,  0,  0,  7,  0,  6,  1,  0,  0,  6,  0,  5 |];
